0 0
48 80
80 90
90 56
48 62
62 30
30 19
30 32
62 105
105 120
0 0
48 80
80 90
90 56
48 51
51 62
51 30
30 19
30 32
62 105
105 120
0 0
48 80
80 79
79 90
79 56
48 51
51 62
51 30
30 19
30 32
62 105
105 120
0 0
48 80
80 79
79 90
79 56
48 51
51 62
51 30
30 19
30 32
62 106
106 105
106 120
